(set-logic QF_S)
(declare-fun _var_0xINPUT_184728_() String)
(declare-fun __woorpje_diseq_pref0_() String)
(declare-fun __woorpje_diseq_suf_l0_() String)
(declare-fun __woorpje_diseq_suf_r0_() String)
(assert (=(str.++ _var_0xINPUT_184728_  "")(str.++ __woorpje_diseq_pref0_  "9" __woorpje_diseq_suf_l0_  "")) )
(assert (=(str.++  "c8rDd96ccB" "")(str.++ __woorpje_diseq_pref0_  "B" __woorpje_diseq_suf_r0_  "")) )
(check-sat)
